\ Model Modelo AGC_copy
\ LP format - for model browsing. Use MPS format to capture full model detail.
Minimize
 
Subject To
 Ploss[0,4,0]: losses[0,4,0] - 0.00178363687519027 dpk[0,0,4,0]
   - 0.00535091062557081 dpk[0,1,4,0] - 0.00891818437595135 dpk[0,2,4,0]
   - 0.0124854581263319 dpk[0,3,4,0] - 0.0160527318767124 dpk[0,4,4,0]
   - 0.019620005627093 dpk[0,5,4,0] - 0.0231872793774735 dpk[0,6,4,0]
   - 0.0267545531278541 dpk[0,7,4,0] - 0.0303218268782346 dpk[0,8,4,0]
   - 0.0338891006286151 dpk[0,9,4,0] - 0.0374563743789957 dpk[0,10,4,0]
   = 0
 Ploss[0,4,1]: losses[0,4,0] - 0.00378181928732754 dpk[0,0,4,0]
   - 0.0113454578619826 dpk[0,1,4,0] - 0.0189090964366377 dpk[0,2,4,0]
   - 0.0264727350112928 dpk[0,3,4,0] - 0.0340363735859479 dpk[0,4,4,0]
   - 0.0416000121606029 dpk[0,5,4,0] - 0.049163650735258 dpk[0,6,4,0]
   - 0.0567272893099131 dpk[0,7,4,0] - 0.0642909278845682 dpk[0,8,4,0]
   - 0.0718545664592233 dpk[0,9,4,0] - 0.0794182050338783 dpk[0,10,4,0]
   = 0
 Ploss[1,4,1]: losses[1,4,0] - 0.00378181928732754 dpk[1,0,4,0]
   - 0.0113454578619826 dpk[1,1,4,0] - 0.0189090964366377 dpk[1,2,4,0]
   - 0.0264727350112928 dpk[1,3,4,0] - 0.0340363735859479 dpk[1,4,4,0]
   - 0.0416000121606029 dpk[1,5,4,0] - 0.049163650735258 dpk[1,6,4,0]
   - 0.0567272893099131 dpk[1,7,4,0] - 0.0642909278845682 dpk[1,8,4,0]
   - 0.0718545664592233 dpk[1,9,4,0] - 0.0794182050338783 dpk[1,10,4,0]
   = 0
 Ploss[1,4,2]: losses[1,4,0] - 0.00210909152562497 dpk[1,0,4,0]
   - 0.00632727457687492 dpk[1,1,4,0] - 0.0105454576281249 dpk[1,2,4,0]
   - 0.0147636406793748 dpk[1,3,4,0] - 0.0189818237306248 dpk[1,4,4,0]
   - 0.0232000067818747 dpk[1,5,4,0] - 0.0274181898331247 dpk[1,6,4,0]
   - 0.0316363728843746 dpk[1,7,4,0] - 0.0358545559356246 dpk[1,8,4,0]
   - 0.0400727389868745 dpk[1,9,4,0] - 0.0442909220381245 dpk[1,10,4,0]
   = 0
 Ploss[2,4,0]: losses[2,4,0] - 0.00178363687519027 dpk[2,0,4,0]
   - 0.00535091062557081 dpk[2,1,4,0] - 0.00891818437595135 dpk[2,2,4,0]
   - 0.0124854581263319 dpk[2,3,4,0] - 0.0160527318767124 dpk[2,4,4,0]
   - 0.019620005627093 dpk[2,5,4,0] - 0.0231872793774735 dpk[2,6,4,0]
   - 0.0267545531278541 dpk[2,7,4,0] - 0.0303218268782346 dpk[2,8,4,0]
   - 0.0338891006286151 dpk[2,9,4,0] - 0.0374563743789957 dpk[2,10,4,0]
   = 0
 Ploss[2,4,1]: losses[2,4,0] - 0.00378181928732754 dpk[2,0,4,0]
   - 0.0113454578619826 dpk[2,1,4,0] - 0.0189090964366377 dpk[2,2,4,0]
   - 0.0264727350112928 dpk[2,3,4,0] - 0.0340363735859479 dpk[2,4,4,0]
   - 0.0416000121606029 dpk[2,5,4,0] - 0.049163650735258 dpk[2,6,4,0]
   - 0.0567272893099131 dpk[2,7,4,0] - 0.0642909278845682 dpk[2,8,4,0]
   - 0.0718545664592233 dpk[2,9,4,0] - 0.0794182050338783 dpk[2,10,4,0]
   = 0
 Balance: Pg_inc[0,4,0] + Pg_inc[1,4,0] + Pg_inc[2,4,0] + Pg_inc[3,4,0]
   + P_ens[0,4,0] + P_ens[1,4,0] + P_ens[2,4,0] - losses[0,4,0]
   - losses[1,4,0] - losses[2,4,0] = 0.0433147857153492
 R611: - fp[2,4,0] - fn[2,4,0] + dpk[2,0,4,0] + dpk[2,1,4,0] + dpk[2,2,4,0]
   + dpk[2,3,4,0] + dpk[2,4,4,0] + dpk[2,5,4,0] + dpk[2,6,4,0]
   + dpk[2,7,4,0] + dpk[2,8,4,0] + dpk[2,9,4,0] + dpk[2,10,4,0] = 0
 flujo[2]: flujo[2,4,0] - fp[2,4,0] + fn[2,4,0] = 0
 flujos[2]: - 0.902192240467107 Pg_inc[1,4,0]
   - 0.5514333786939732 Pg_inc[3,4,0] - 0.5514333786939732 P_ens[0,4,0]
   - 0.902192240467107 P_ens[2,4,0] + flujo[2,4,0]
   + 0.2757166893469866 losses[0,4,0] + 0.7268128095805402 losses[1,4,0]
   + 0.4510961202335535 losses[2,4,0] = -0.608611850003592
 LimiteDpk[2]: - dpk[2,0,4,0] >= -0.0909091146177958
 LimiteDpk[2]: - dpk[2,1,4,0] >= -0.0909091146177958
 LimiteDpk[2]: - dpk[2,2,4,0] >= -0.0909091146177958
 LimiteDpk[2]: - dpk[2,3,4,0] >= -0.0909091146177958
 LimiteDpk[2]: - dpk[2,4,4,0] >= -0.0909091146177958
Bounds
 Pg_inc[1,4,0] free
 P_ens[2,4,0] free
 flujo[2,4,0] free
 fn[2,4,0] free
 losses[0,4,0] free
 losses[1,4,0] free
 losses[2,4,0] free
 dpk[0,0,4,0] free
 dpk[0,1,4,0] free
 dpk[0,2,4,0] free
 dpk[0,3,4,0] free
 dpk[0,4,4,0] free
 dpk[0,5,4,0] free
 dpk[0,6,4,0] free
 dpk[0,7,4,0] free
 dpk[0,8,4,0] free
 dpk[0,9,4,0] free
 dpk[0,10,4,0] free
 dpk[1,0,4,0] free
 dpk[1,1,4,0] free
 dpk[1,2,4,0] free
 dpk[1,3,4,0] free
 dpk[1,4,4,0] free
 dpk[1,5,4,0] free
 dpk[1,6,4,0] free
 dpk[1,7,4,0] free
 dpk[1,8,4,0] free
 dpk[1,9,4,0] free
 dpk[1,10,4,0] free
 dpk[2,0,4,0] free
 dpk[2,1,4,0] free
 dpk[2,2,4,0] free
 dpk[2,3,4,0] free
 dpk[2,4,4,0] free
 dpk[2,5,4,0] free
End
